30
0   51   51
1   52   51
2   52   52
3   52   52
4   51   51
5   27   26
6   27   27
7   26   27
8   27   26
9   26   27
10   13   13
11   13   13
12   14   13
13   14   13
14   13   14
15   8   7
16   8   7
17   7   8
18   8   7
19   8   7
20   4   5
21   4   5
22   5   4
23   5   5
24   5   5
25   1   2
26   1   2
27   2   1
28   2   2
29   1   2
100
